language ESSENCE' 1.0

letting jobs = 102
letting horizon = 794
letting resourcesRenew = 2
letting resourcesNonrenew = 2
letting resourceLimits = [18, 18, 273, 266]
letting successors = [[2, 3, 4, 5, 6, 7, 9, 10, 11, 13], [30, 29, 25, 23, 22, 19, 16, 14], [23, 22, 19, 15, 8], [30, 29, 25, 22, 20, 16, 15], [30, 27, 26, 25, 20, 18, 16], [32, 29, 27, 12], [30, 21, 20, 19, 15], [30, 29, 28, 27, 25, 16], [30, 27, 22, 17, 16], [32, 30, 28, 27, 26, 24, 22, 21], [29, 27, 26, 24, 20, 17], [35, 30, 26, 25, 24, 17], [36, 30, 27, 16], [31, 28, 27, 26, 21, 18], [40, 38, 36, 35, 33, 31, 27, 26, 24], [35, 32, 31, 24, 21], [36, 31, 28, 21], [43, 42, 41, 40, 39, 38, 36, 35, 34, 33], [43, 41, 40, 39, 36, 35, 33, 32, 27], [39, 36, 34, 33, 31, 28], [43, 42, 40, 39, 38, 34, 33], [42, 41, 36, 35, 31], [46, 42, 41, 39, 31], [42, 41, 39, 37, 34], [46, 41, 36, 31], [51, 50, 49, 43, 42, 39, 37], [55, 52, 51, 50, 49, 46, 42, 37], [51, 50, 46, 42, 41, 37], [49, 43, 42, 35, 34], [52, 50, 48, 47, 46, 45, 42, 38], [55, 52, 51, 50, 49, 44, 37], [55, 52, 50, 46, 42, 37], [55, 51, 50, 49, 44, 37], [57, 56, 55, 52, 50, 46, 45, 44], [62, 59, 57, 56, 55, 54, 53, 52, 50, 47, 46], [63, 62, 59, 57, 56, 55, 54, 53, 51, 50, 47], [63, 58, 57, 56, 48, 47, 45], [62, 57, 56, 55, 54, 49, 44], [55, 52, 45, 44], [63, 62, 61, 60, 59, 58, 57, 56, 55, 54, 53], [63, 57, 56, 55, 53, 49, 47], [64, 56, 44], [64, 62, 61, 60, 56, 54, 53], [65, 63, 61, 60, 59, 58, 53], [65, 62, 61, 60, 54, 53], [73, 70, 66, 65, 63, 61, 60, 58], [76, 73, 72, 71, 70, 66, 65, 64, 60], [72, 71, 70, 67, 65, 64, 59], [73, 72, 66, 65, 64, 61, 60], [76, 72, 70, 67, 66, 61, 58], [73, 72, 71, 68, 67, 66, 65], [87, 73, 65, 63, 60], [73, 72, 71, 70, 69, 68, 67], [81, 80, 79, 76, 75, 73, 71, 67, 66], [87, 72, 69, 67, 65, 64], [76, 70, 69, 68, 67, 65], [87, 76, 74, 73, 71, 65], [89, 80, 75, 74, 69, 68], [82, 80, 78, 76, 73, 66], [81, 80, 75, 69, 67], [89, 87, 85, 84, 81, 74, 71], [86, 84, 81, 79, 78, 76, 70], [75, 72, 68], [89, 84, 75, 68], [86, 84, 82, 81, 79, 78, 77, 75], [89, 87, 85, 74, 69], [85, 84, 83, 82, 78, 74], [90, 86, 83, 82, 81, 79, 78], [101, 92, 88, 86, 84, 77], [89, 88, 87, 83, 75], [92, 90, 82, 78, 77], [92, 86, 80, 77], [101, 91, 89, 85, 84], [101, 100, 92, 91, 88, 86], [101, 99, 93, 92, 91, 85], [99, 92, 91, 90, 89], [100, 91, 83], [101, 99, 97, 94, 91], [101, 100, 98, 95, 88], [99, 93, 85], [100, 98, 97, 95, 94], [98, 97, 95, 94], [97, 94, 93], [99, 90], [97, 95, 94], [98, 97, 93], [97, 96, 93], [99, 97, 96], [100, 97, 95], [96, 93], [98, 95], [96, 95], [95], [96], [102], [102], [102], [102], [102], [102], [102], []]
letting durations = [[0], [1, 2, 10], [1, 2, 6], [3, 4, 8], [9, 9, 10], [5, 6, 6], [1, 6, 9], [2, 6, 10], [1, 7, 7], [6, 6, 9], [2, 3, 3], [1, 6, 8], [1, 6, 10], [1, 8, 8], [1, 4, 8], [1, 5, 7], [2, 4, 5], [3, 7, 8], [4, 6, 7], [1, 3, 8], [1, 6, 6], [5, 6, 8], [1, 2, 9], [1, 4, 10], [4, 7, 9], [2, 9, 10], [1, 4, 7], [4, 6, 7], [3, 4, 8], [1, 7, 10], [6, 7, 10], [1, 5, 7], [7, 9, 9], [1, 5, 6], [2, 2, 3], [4, 6, 8], [3, 3, 9], [3, 6, 10], [2, 6, 9], [1, 8, 9], [5, 7, 10], [1, 3, 9], [2, 6, 7], [1, 4, 8], [2, 8, 9], [1, 2, 9], [8, 9, 10], [1, 5, 6], [4, 5, 8], [7, 8, 9], [1, 3, 4], [4, 5, 6], [6, 10, 10], [4, 4, 5], [1, 1, 9], [3, 3, 6], [2, 3, 3], [3, 8, 9], [1, 4, 10], [1, 2, 10], [1, 2, 7], [1, 7, 7], [4, 6, 6], [1, 2, 4], [2, 3, 4], [4, 5, 8], [6, 6, 7], [8, 8, 8], [1, 7, 10], [1, 7, 9], [4, 7, 10], [3, 8, 8], [3, 9, 10], [2, 8, 10], [1, 4, 4], [1, 4, 5], [4, 6, 8], [1, 7, 8], [3, 7, 7], [3, 6, 10], [4, 6, 10], [1, 2, 10], [6, 9, 10], [1, 6, 7], [2, 3, 8], [2, 6, 8], [1, 1, 6], [4, 4, 7], [1, 1, 9], [4, 5, 8], [2, 4, 9], [6, 8, 10], [3, 9, 9], [2, 7, 8], [2, 3, 3], [3, 9, 10], [2, 6, 10], [2, 6, 6], [2, 4, 10], [1, 2, 9], [2, 5, 9], [0]]
letting resourceUsage = [[[0, 0, 0, 0]], [[4, 0, 0, 8], [0, 3, 4, 0], [0, 3, 1, 0]], [[0, 2, 0, 7], [0, 2, 0, 5], [2, 0, 5, 0]], [[0, 4, 0, 5], [0, 3, 0, 4], [2, 0, 4, 0]], [[0, 2, 0, 8], [3, 0, 0, 7], [3, 0, 0, 6]], [[4, 0, 0, 6], [4, 0, 0, 4], [4, 0, 3, 0]], [[0, 4, 0, 7], [1, 0, 0, 6], [0, 3, 4, 0]], [[0, 3, 8, 0], [0, 2, 5, 0], [2, 0, 5, 0]], [[5, 0, 0, 5], [0, 3, 0, 4], [2, 0, 0, 3]], [[5, 0, 0, 6], [0, 2, 3, 0], [0, 1, 0, 4]], [[0, 5, 4, 0], [0, 5, 3, 0], [0, 5, 0, 5]], [[1, 0, 0, 8], [1, 0, 0, 4], [1, 0, 0, 2]], [[0, 3, 0, 7], [3, 0, 6, 0], [2, 0, 0, 4]], [[0, 1, 7, 0], [0, 1, 5, 0], [4, 0, 5, 0]], [[0, 4, 5, 0], [2, 0, 4, 0], [1, 0, 0, 3]], [[3, 0, 9, 0], [3, 0, 5, 0], [0, 4, 2, 0]], [[0, 5, 0, 4], [0, 5, 0, 2], [1, 0, 0, 2]], [[3, 0, 7, 0], [3, 0, 0, 3], [0, 2, 1, 0]], [[1, 0, 8, 0], [0, 1, 7, 0], [1, 0, 0, 3]], [[0, 3, 0, 7], [1, 0, 0, 3], [0, 2, 0, 2]], [[0, 5, 7, 0], [0, 4, 0, 4], [0, 3, 4, 0]], [[5, 0, 7, 0], [0, 2, 7, 0], [0, 2, 0, 2]], [[3, 0, 5, 0], [2, 0, 4, 0], [0, 1, 3, 0]], [[4, 0, 4, 0], [3, 0, 2, 0], [3, 0, 0, 4]], [[3, 0, 8, 0], [3, 0, 0, 7], [3, 0, 6, 0]], [[0, 2, 9, 0], [4, 0, 9, 0], [0, 2, 8, 0]], [[0, 4, 0, 7], [0, 4, 3, 0], [4, 0, 0, 2]], [[0, 4, 9, 0], [0, 4, 0, 5], [0, 3, 2, 0]], [[2, 0, 0, 7], [0, 3, 0, 6], [0, 2, 3, 0]], [[0, 5, 0, 6], [2, 0, 0, 5], [0, 3, 0, 5]], [[3, 0, 0, 3], [3, 0, 6, 0], [3, 0, 5, 0]], [[3, 0, 7, 0], [0, 3, 0, 3], [0, 2, 3, 0]], [[4, 0, 0, 7], [0, 3, 7, 0], [3, 0, 0, 4]], [[4, 0, 0, 7], [0, 1, 8, 0], [3, 0, 8, 0]], [[4, 0, 7, 0], [0, 4, 0, 2], [0, 4, 0, 1]], [[2, 0, 8, 0], [2, 0, 0, 5], [0, 2, 0, 5]], [[0, 4, 5, 0], [4, 0, 5, 0], [4, 0, 4, 0]], [[0, 5, 10, 0], [3, 0, 9, 0], [1, 0, 0, 1]], [[0, 5, 4, 0], [3, 0, 3, 0], [0, 3, 2, 0]], [[3, 0, 0, 3], [3, 0, 4, 0], [0, 1, 0, 1]], [[0, 4, 4, 0], [0, 3, 4, 0], [0, 3, 3, 0]], [[0, 1, 0, 8], [0, 1, 0, 7], [0, 1, 0, 6]], [[0, 3, 0, 7], [0, 2, 0, 7], [0, 2, 0, 6]], [[0, 1, 8, 0], [0, 1, 0, 6], [3, 0, 2, 0]], [[4, 0, 0, 8], [4, 0, 0, 7], [4, 0, 1, 0]], [[5, 0, 3, 0], [0, 1, 3, 0], [2, 0, 0, 3]], [[0, 2, 3, 0], [0, 1, 2, 0], [4, 0, 1, 0]], [[0, 5, 0, 8], [0, 4, 0, 8], [0, 2, 5, 0]], [[0, 4, 0, 3], [0, 3, 4, 0], [5, 0, 0, 2]], [[0, 2, 0, 4], [4, 0, 0, 4], [3, 0, 0, 2]], [[0, 3, 9, 0], [0, 2, 0, 3], [1, 0, 7, 0]], [[0, 4, 0, 9], [1, 0, 4, 0], [1, 0, 3, 0]], [[0, 2, 9, 0], [1, 0, 0, 4], [0, 2, 0, 3]], [[0, 4, 9, 0], [0, 2, 0, 7], [0, 2, 3, 0]], [[0, 3, 5, 0], [3, 0, 0, 3], [1, 0, 0, 3]], [[4, 0, 0, 9], [3, 0, 5, 0], [0, 3, 4, 0]], [[2, 0, 3, 0], [0, 1, 3, 0], [1, 0, 0, 5]], [[2, 0, 0, 9], [2, 0, 0, 8], [2, 0, 0, 7]], [[1, 0, 0, 5], [0, 5, 1, 0], [1, 0, 1, 0]], [[3, 0, 0, 5], [0, 2, 9, 0], [2, 0, 0, 2]], [[3, 0, 9, 0], [0, 2, 8, 0], [1, 0, 7, 0]], [[4, 0, 8, 0], [0, 3, 4, 0], [3, 0, 4, 0]], [[2, 0, 0, 9], [0, 1, 0, 9], [0, 1, 4, 0]], [[0, 3, 1, 0], [0, 1, 0, 4], [1, 0, 0, 4]], [[0, 3, 8, 0], [0, 3, 7, 0], [0, 3, 5, 0]], [[0, 4, 0, 6], [4, 0, 5, 0], [0, 2, 2, 0]], [[4, 0, 0, 3], [0, 2, 2, 0], [0, 1, 2, 0]], [[0, 3, 6, 0], [1, 0, 5, 0], [1, 0, 0, 8]], [[4, 0, 7, 0], [0, 4, 7, 0], [2, 0, 6, 0]], [[0, 1, 7, 0], [0, 1, 3, 0], [1, 0, 1, 0]], [[2, 0, 0, 5], [0, 3, 5, 0], [0, 2, 3, 0]], [[0, 5, 0, 10], [0, 4, 4, 0], [0, 4, 0, 9]], [[5, 0, 4, 0], [0, 3, 0, 5], [0, 2, 0, 5]], [[4, 0, 0, 9], [0, 1, 0, 5], [0, 1, 4, 0]], [[4, 0, 7, 0], [0, 4, 0, 2], [3, 0, 0, 1]], [[3, 0, 3, 0], [0, 4, 0, 7], [3, 0, 0, 6]], [[4, 0, 0, 10], [0, 3, 0, 8], [0, 2, 0, 4]], [[0, 4, 0, 5], [0, 4, 5, 0], [1, 0, 5, 0]], [[0, 4, 5, 0], [0, 3, 0, 8], [0, 2, 4, 0]], [[2, 0, 5, 0], [1, 0, 0, 7], [1, 0, 0, 6]], [[0, 4, 0, 7], [0, 4, 0, 6], [0, 2, 2, 0]], [[0, 4, 2, 0], [0, 4, 0, 5], [0, 4, 1, 0]], [[0, 1, 0, 8], [4, 0, 7, 0], [4, 0, 0, 8]], [[0, 2, 0, 9], [1, 0, 4, 0], [1, 0, 0, 6]], [[4, 0, 10, 0], [2, 0, 5, 0], [2, 0, 4, 0]], [[1, 0, 0, 6], [0, 2, 0, 5], [1, 0, 0, 4]], [[0, 2, 0, 2], [2, 0, 3, 0], [0, 2, 3, 0]], [[4, 0, 6, 0], [0, 2, 0, 3], [1, 0, 2, 0]], [[0, 2, 0, 5], [0, 2, 6, 0], [4, 0, 5, 0]], [[3, 0, 0, 5], [3, 0, 7, 0], [0, 1, 0, 2]], [[4, 0, 0, 7], [4, 0, 0, 5], [4, 0, 6, 0]], [[0, 2, 0, 9], [2, 0, 0, 4], [0, 1, 0, 4]], [[0, 3, 4, 0], [3, 0, 0, 2], [0, 3, 0, 2]], [[0, 3, 5, 0], [0, 1, 4, 0], [2, 0, 4, 0]], [[0, 3, 3, 0], [2, 0, 2, 0], [0, 2, 2, 0]], [[0, 3, 10, 0], [0, 3, 0, 5], [0, 3, 0, 3]], [[0, 5, 0, 8], [0, 2, 0, 5], [0, 2, 0, 4]], [[0, 3, 0, 4], [2, 0, 0, 3], [1, 0, 2, 0]], [[2, 0, 0, 8], [1, 0, 0, 4], [1, 0, 0, 3]], [[5, 0, 8, 0], [0, 2, 8, 0], [0, 1, 8, 0]], [[3, 0, 0, 7], [2, 0, 5, 0], [0, 4, 0, 7]], [[0, 0, 0, 0]]]
